n_res = 4;
rc = [ 0, 0, 0, 0 ];
n_tasks = 30;
d = [ 1, 7, 1, 7, 7, 1, 7, 4, 4, 2, 1, 1, 6, 1, 7, 9, 3, 10, 3, 10, 8, 1, 6, 1, 3, 9, 8, 3, 6, 8 ];
rr = [| 0, 0, 0, 0, 0, 0, 0, 0, 0, 0, 0, 0, 0, 0, 0, 0, 0, 0, 0, 0, 0, 0, 0, 0, 0, 0, 0, 0, 0, 0
      | 0, 0, 0, 0, 0, 0, 0, 0, 0, 0, 0, 0, 0, 0, 0, 0, 0, 0, 0, 0, 0, 0, 0, 0, 0, 0, 0, 0, 0, 0
      | 0, 0, 0, 0, 0, 0, 0, 0, 0, 0, 0, 0, 0, 0, 0, 0, 0, 0, 0, 0, 0, 0, 0, 0, 0, 0, 0, 0, 0, 0
      | 0, 0, 0, 0, 0, 0, 0, 0, 0, 0, 0, 0, 0, 0, 0, 0, 0, 0, 0, 0, 0, 0, 0, 0, 0, 0, 0, 0, 0, 0 |];
suc = [ { 4, 9, 27 },
       { 5, 8, 10 },
       { 6, 10, 23 },
       { 16, 18, 21 },
       { 7, 14, 21 },
       { 19, 20 },
       { 19, 22, 24 },
       { 26, 27 },
       { 12, 23 },
       { 11, 26 },
       { 17 },
       { 13, 17, 18 },
       { 15 },
       { 17, 22, 30 },
       { 24 },
       { 19, 28, 29 },
       { 20 },
       { 20, 24 },
       { 30 },
       { 25, 28 },
       { 30 },
       { 23, 25 },
       { 26 },
       { 25 },
       { 29 },
       { 29 },
       { 28 },
       {  },
       {  },
       {  } ];
